NAME : kroE100-C-3-1-a__learnable_bias_same_priority_ls20__28853.tour
COMMENT : Length = 28853.000
COMMENT : Generated by evaluate_ctspd.py for learnable_bias_same_priority_ls20
TYPE : TOUR
DIMENSION : 100
TOUR_SECTION
23
28
36
95
64
15
20
56
62
49
50
60
17
84
1
52
14
44
72
89
81
71
61
79
26
46
3
47
16
73
83
69
51
21
74
7
76
98
59
58
32
12
63
88
35
40
99
45
54
25
97
65
8
5
42
48
90
30
66
31
57
80
10
9
13
75
41
87
67
27
92
82
2
11
4
33
68
38
22
39
43
86
19
94
18
24
29
100
78
53
77
85
96
70
37
34
6
55
91
93
-1
EOF
